(set-info :source |printed by MathSAT|)
(declare-fun |!{$(in_main#0)<array1.1>}| () (Array Int Int))
(declare-fun |!{$(in_main#0)<array1.1>}.next| () (Array Int Int))
(declare-fun |!{$(in_main#0)<array2.2>}| () (Array Int Int))
(declare-fun |!{$(in_main#0)<array2.2>}.next| () (Array Int Int))
(declare-fun |!{$(in_main#0)<N>}| () Int)
(declare-fun |!{$(in_main#0)<N>}.next| () Int)
(declare-fun |!{$(in_main#0)<i>}| () Int)
(declare-fun |!{$(in_main#0)<i>}.next| () Int)
(declare-fun |!{$(in_main#0)<j>}| () Int)
(declare-fun |!{$(in_main#0)<j>}.next| () Int)
(declare-fun |!{$(in_main#0)<k>}| () Int)
(declare-fun |!{$(in_main#0)<k>}.next| () Int)
(declare-fun |!{$(in_main#0)<k#1>}| () Int)
(declare-fun |!{$(in_main#0)<k#1>}.next| () Int)
(declare-fun |!{$(in_main#0)<$(in___VERIFIER_nondet_int#0)<h#<__VERIFIER_nondet_int.return>>>}| () Int)
(declare-fun |!{$(in_main#0)<$(in___VERIFIER_nondet_int#2)<h#<__VERIFIER_nondet_int.return>>>}| () Int)
(declare-fun |!{$(in_main#0)<$(in___VERIFIER_nondet_int#3)<h#<__VERIFIER_nondet_int.return>>>}| () Int)
(declare-fun !pc () Int)
(declare-fun !pc.next () Int)
(declare-fun |%{$(in_main#0)<i>}#1| () Int)
(declare-fun |%{$(in_main#0)<j>}#1| () Int)
(declare-fun |%{$(in_main#0)<k#1>}#1| () Int)
(declare-fun |%{$(in_main#0)<array1.1>}#1| () (Array Int Int))
(declare-fun |%{$(in_main#0)<array2.2>}#1| () (Array Int Int))
(define-fun .def_40 () Int (! !pc :next !pc.next))
(define-fun .def_43 () Bool (! (= .def_40 2) :init true))
(define-fun .def_216 () Bool (= .def_40 43))
(define-fun .def_185 () Bool (= !pc.next 72))
(define-fun .def_219 () Bool (and .def_185 .def_216))
(define-fun .def_12 () Int (! |!{$(in_main#0)<N>}| :next |!{$(in_main#0)<N>}.next|))
(define-fun .def_211 () Bool (= .def_12 |!{$(in_main#0)<j>}.next|))
(define-fun .def_209 () Bool (= |!{$(in_main#0)<i>}.next| 0))
(define-fun .def_10 () (Array Int Int) (! |!{$(in_main#0)<array2.2>}| :next |!{$(in_main#0)<array2.2>}.next|))
(define-fun .def_98 () Bool (= .def_10 |!{$(in_main#0)<array2.2>}.next|))
(define-fun .def_8 () (Array Int Int) (! |!{$(in_main#0)<array1.1>}| :next |!{$(in_main#0)<array1.1>}.next|))
(define-fun .def_96 () Bool (= .def_8 |!{$(in_main#0)<array1.1>}.next|))
(define-fun .def_111 () Bool (and .def_96 .def_98))
(define-fun .def_100 () Bool (= .def_12 |!{$(in_main#0)<N>}.next|))
(define-fun .def_112 () Bool (and .def_100 .def_111))
(define-fun .def_210 () Bool (and .def_112 .def_209))
(define-fun .def_212 () Bool (and .def_210 .def_211))
(define-fun .def_18 () Int (! |!{$(in_main#0)<k>}| :next |!{$(in_main#0)<k>}.next|))
(define-fun .def_106 () Bool (= .def_18 |!{$(in_main#0)<k>}.next|))
(define-fun .def_213 () Bool (and .def_106 .def_212))
(define-fun .def_20 () Int (! |!{$(in_main#0)<k#1>}| :next |!{$(in_main#0)<k#1>}.next|))
(define-fun .def_108 () Bool (= .def_20 |!{$(in_main#0)<k#1>}.next|))
(define-fun .def_214 () Bool (and .def_108 .def_213))
(define-fun .def_192 () Bool (<= .def_12 .def_18))
(define-fun .def_215 () Bool (and .def_192 .def_214))
(define-fun .def_220 () Bool (and .def_215 .def_219))
(define-fun .def_77 () Bool (= !pc.next 43))
(define-fun .def_217 () Bool (and .def_77 .def_216))
(define-fun .def_203 () Int (* (- 1) |!{$(in_main#0)<k>}.next|))
(define-fun .def_204 () Int (+ .def_18 .def_203))
(define-fun .def_205 () Bool (= .def_204 (- 1)))
(define-fun .def_195 () (Array Int Int) (store .def_10 .def_18 |!{$(in_main#0)<$(in___VERIFIER_nondet_int#3)<h#<__VERIFIER_nondet_int.return>>>}|))
(define-fun .def_198 () Bool (= |!{$(in_main#0)<array2.2>}.next| .def_195))
(define-fun .def_194 () (Array Int Int) (store .def_8 .def_18 |!{$(in_main#0)<$(in___VERIFIER_nondet_int#2)<h#<__VERIFIER_nondet_int.return>>>}|))
(define-fun .def_197 () Bool (= |!{$(in_main#0)<array1.1>}.next| .def_194))
(define-fun .def_199 () Bool (and .def_197 .def_198))
(define-fun .def_200 () Bool (and .def_100 .def_199))
(define-fun .def_14 () Int (! |!{$(in_main#0)<i>}| :next |!{$(in_main#0)<i>}.next|))
(define-fun .def_102 () Bool (= .def_14 |!{$(in_main#0)<i>}.next|))
(define-fun .def_201 () Bool (and .def_102 .def_200))
(define-fun .def_16 () Int (! |!{$(in_main#0)<j>}| :next |!{$(in_main#0)<j>}.next|))
(define-fun .def_104 () Bool (= .def_16 |!{$(in_main#0)<j>}.next|))
(define-fun .def_202 () Bool (and .def_104 .def_201))
(define-fun .def_206 () Bool (and .def_202 .def_205))
(define-fun .def_207 () Bool (and .def_108 .def_206))
(define-fun .def_193 () Bool (not .def_192))
(define-fun .def_208 () Bool (and .def_193 .def_207))
(define-fun .def_218 () Bool (and .def_208 .def_217))
(define-fun .def_221 () Bool (or .def_218 .def_220))
(define-fun .def_184 () Bool (= .def_40 72))
(define-fun .def_135 () Bool (= !pc.next 90))
(define-fun .def_188 () Bool (and .def_135 .def_184))
(define-fun .def_180 () Bool (= |!{$(in_main#0)<k#1>}.next| 0))
(define-fun .def_113 () Bool (and .def_102 .def_112))
(define-fun .def_114 () Bool (and .def_104 .def_113))
(define-fun .def_115 () Bool (and .def_106 .def_114))
(define-fun .def_181 () Bool (and .def_115 .def_180))
(define-fun .def_151 () Bool (<= .def_14 .def_16))
(define-fun .def_148 () Bool (<= .def_16 0))
(define-fun .def_149 () Bool (not .def_148))
(define-fun .def_146 () Bool (<= .def_12 .def_14))
(define-fun .def_147 () Bool (not .def_146))
(define-fun .def_150 () Bool (and .def_147 .def_149))
(define-fun .def_152 () Bool (and .def_150 .def_151))
(define-fun .def_165 () Bool (not .def_152))
(define-fun .def_182 () Bool (and .def_165 .def_181))
(define-fun .def_189 () Bool (and .def_182 .def_188))
(define-fun .def_186 () Bool (and .def_184 .def_185))
(define-fun .def_173 () Int (* (- 1) |!{$(in_main#0)<j>}.next|))
(define-fun .def_174 () Int (+ .def_16 .def_173))
(define-fun .def_175 () Bool (= .def_174 1))
(define-fun .def_169 () Int (* (- 1) |!{$(in_main#0)<i>}.next|))
(define-fun .def_170 () Int (+ .def_14 .def_169))
(define-fun .def_171 () Bool (= .def_170 (- 1)))
(define-fun .def_160 () Int (* (- 1) .def_16))
(define-fun .def_161 () Int (+ .def_12 .def_160))
(define-fun .def_162 () Int (select .def_10 .def_161))
(define-fun .def_159 () Int (+ .def_16 (- 1)))
(define-fun .def_153 () Int (* (- 1) .def_14))
(define-fun .def_154 () Int (+ .def_12 .def_153))
(define-fun .def_156 () Int (+ .def_154 (- 1)))
(define-fun .def_157 () Int (select .def_10 .def_156))
(define-fun .def_158 () (Array Int Int) (store .def_8 .def_14 .def_157))
(define-fun .def_163 () (Array Int Int) (store .def_158 .def_159 .def_162))
(define-fun .def_166 () Bool (= |!{$(in_main#0)<array1.1>}.next| .def_163))
(define-fun .def_167 () Bool (and .def_98 .def_166))
(define-fun .def_168 () Bool (and .def_100 .def_167))
(define-fun .def_172 () Bool (and .def_168 .def_171))
(define-fun .def_176 () Bool (and .def_172 .def_175))
(define-fun .def_177 () Bool (and .def_106 .def_176))
(define-fun .def_178 () Bool (and .def_108 .def_177))
(define-fun .def_179 () Bool (and .def_152 .def_178))
(define-fun .def_187 () Bool (and .def_179 .def_186))
(define-fun .def_190 () Bool (or .def_187 .def_189))
(define-fun .def_139 () Bool (= !pc.next 0))
(define-fun .def_130 () Bool (= .def_40 90))
(define-fun .def_140 () Bool (and .def_130 .def_139))
(define-fun .def_80 () Bool (<= .def_12 .def_20))
(define-fun .def_122 () Bool (and .def_80 .def_96))
(define-fun .def_123 () Bool (and .def_98 .def_122))
(define-fun .def_124 () Bool (and .def_100 .def_123))
(define-fun .def_125 () Bool (and .def_102 .def_124))
(define-fun .def_126 () Bool (and .def_104 .def_125))
(define-fun .def_127 () Bool (and .def_106 .def_126))
(define-fun .def_128 () Bool (and .def_108 .def_127))
(define-fun .def_141 () Bool (and .def_128 .def_140))
(define-fun .def_136 () Bool (and .def_130 .def_135))
(define-fun .def_116 () Int (* (- 1) |!{$(in_main#0)<k#1>}.next|))
(define-fun .def_117 () Int (+ .def_20 .def_116))
(define-fun .def_118 () Bool (= .def_117 (- 1)))
(define-fun .def_119 () Bool (and .def_115 .def_118))
(define-fun .def_84 () Int (* (- 1) .def_20))
(define-fun .def_85 () Int (+ .def_12 .def_84))
(define-fun .def_87 () Int (+ .def_85 (- 1)))
(define-fun .def_88 () Int (select .def_10 .def_87))
(define-fun .def_82 () Int (select .def_8 .def_20))
(define-fun .def_89 () Bool (= .def_82 .def_88))
(define-fun .def_90 () Int (ite .def_89 1 0))
(define-fun .def_91 () Bool (= .def_90 0))
(define-fun .def_92 () Bool (not .def_91))
(define-fun .def_120 () Bool (and .def_92 .def_119))
(define-fun .def_81 () Bool (not .def_80))
(define-fun .def_121 () Bool (and .def_81 .def_120))
(define-fun .def_137 () Bool (and .def_121 .def_136))
(define-fun .def_132 () Bool (= !pc.next 110))
(define-fun .def_133 () Bool (and .def_130 .def_132))
(define-fun .def_97 () Bool (and .def_91 .def_96))
(define-fun .def_99 () Bool (and .def_97 .def_98))
(define-fun .def_101 () Bool (and .def_99 .def_100))
(define-fun .def_103 () Bool (and .def_101 .def_102))
(define-fun .def_105 () Bool (and .def_103 .def_104))
(define-fun .def_107 () Bool (and .def_105 .def_106))
(define-fun .def_109 () Bool (and .def_107 .def_108))
(define-fun .def_110 () Bool (and .def_81 .def_109))
(define-fun .def_134 () Bool (and .def_110 .def_133))
(define-fun .def_138 () Bool (or .def_134 .def_137))
(define-fun .def_142 () Bool (or .def_138 .def_141))
(define-fun .def_78 () Bool (and .def_43 .def_77))
(define-fun .def_73 () Bool (= |!{$(in_main#0)<k#1>}.next| |%{$(in_main#0)<k#1>}#1|))
(define-fun .def_71 () Bool (= |!{$(in_main#0)<k>}.next| 0))
(define-fun .def_69 () Bool (= |!{$(in_main#0)<j>}.next| |%{$(in_main#0)<j>}#1|))
(define-fun .def_67 () Bool (= |!{$(in_main#0)<i>}.next| |%{$(in_main#0)<i>}#1|))
(define-fun .def_65 () Bool (= |!{$(in_main#0)<N>}.next| |!{$(in_main#0)<$(in___VERIFIER_nondet_int#0)<h#<__VERIFIER_nondet_int.return>>>}|))
(define-fun .def_63 () Bool (= |!{$(in_main#0)<array2.2>}.next| |%{$(in_main#0)<array2.2>}#1|))
(define-fun .def_62 () Bool (= |!{$(in_main#0)<array1.1>}.next| |%{$(in_main#0)<array1.1>}#1|))
(define-fun .def_64 () Bool (and .def_62 .def_63))
(define-fun .def_66 () Bool (and .def_64 .def_65))
(define-fun .def_68 () Bool (and .def_66 .def_67))
(define-fun .def_70 () Bool (and .def_68 .def_69))
(define-fun .def_72 () Bool (and .def_70 .def_71))
(define-fun .def_74 () Bool (and .def_72 .def_73))
(define-fun .def_57 () Bool (<= |!{$(in_main#0)<$(in___VERIFIER_nondet_int#0)<h#<__VERIFIER_nondet_int.return>>>}| 0))
(define-fun .def_58 () Bool (not .def_57))
(define-fun .def_59 () Int (ite .def_58 1 0))
(define-fun .def_60 () Bool (= .def_59 0))
(define-fun .def_61 () Bool (not .def_60))
(define-fun .def_75 () Bool (and .def_61 .def_74))
(define-fun .def_79 () Bool (and .def_75 .def_78))
(define-fun .def_143 () Bool (or .def_79 .def_142))
(define-fun .def_191 () Bool (or .def_143 .def_190))
(define-fun .def_222 () Bool (! (or .def_191 .def_221) :trans true))
(define-fun .def_144 () Bool (= .def_40 110))
(define-fun .def_223 () Bool (! (not .def_144) :invar-property 0 :invar-property-name ||))
(assert true)
